
Gurobi 8.1.1 (linux64, Python) logging started Mon Nov 25 15:56:34 2019

Academic license - for non-commercial use only
Optimize a model with 36 rows, 19 columns and 108 nonzeros
Variable types: 0 continuous, 19 integer (19 binary)
Coefficient statistics:
  Matrix range     [1e+00, 1e+00]
  Objective range  [5e+00, 7e+01]
  Bounds range     [1e+00, 1e+00]
  RHS range        [2e+00, 2e+00]
Found heuristic solution: objective -0.0000000
Presolve removed 8 rows and 5 columns
Presolve time: 0.04s
Presolved: 28 rows, 14 columns, 84 nonzeros
Found heuristic solution: objective 48.0000000
Variable types: 0 continuous, 14 integer (14 binary)

Root relaxation: objective 2.850000e+02, 10 iterations, 0.00 seconds

    Nodes    |    Current Node    |     Objective Bounds      |     Work
 Expl Unexpl |  Obj  Depth IntInf | Incumbent    BestBd   Gap | It/Node Time

     0     0  285.00000    0    7   48.00000  285.00000   494%     -    0s
H    0     0                     207.0000000  285.00000  37.7%     -    0s
H    0     0                     250.0000000  285.00000  14.0%     -    0s
*    0     0               0     280.0000000  280.00000  0.00%     -    0s

Explored 1 nodes (11 simplex iterations) in 0.07 seconds
Thread count was 4 (of 4 available processors)

Solution count 4: 280 250 207 48 

Optimal solution found (tolerance 1.00e-04)
Best objective 2.800000000000e+02, best bound 2.800000000000e+02, gap 0.0000%
